(set-logic QF_S)
(declare-fun var0 () Int)
(declare-fun var1 () Int)
(declare-fun var2 () String)
(declare-fun var3 () String)
(declare-fun var4 () String)
(declare-fun var5 () String)
(declare-fun var6 () Int)
(declare-fun var7 () Int)
(assert (< var0 var1))
(assert (str.prefixof var2 var3))
(assert (str.suffixof (str.substr (str.replace var4 var5 var3) (str.indexof var5 var4 var6) (str.len var5)) (str.at "JfJRbr%" var7)))
(assert (> (str.len var2) (str.indexof var2 "ZRR" var6)))
(check-sat)